NAME: tsp-a-24
TYPE: TSP
COMMENT: min_cost = 2356.45
DIMENSION: 24
EDGE_WEIGHT_TYPE: EUC_2D
NODE_COORD_SECTION
1 301 246
2 14 62
3 18 366
4 181 292
5 522 143
6 236 435
7 131 44
8 166 92
9 535 465
10 364 501
11 462 107
12 514 310
13 465 516
14 183 63
15 131 246
16 471 495
17 4 294
18 240 127
19 69 194
20 543 186
21 298 404
22 209 559
23 554 145
24 286 173
EOF
